c This Formular is generated by mcnf
c
c    horn? no 
c    forced? no 
c    mixed sat? no 
c    clause length = 3 
c
p cnf 20  91 
 -7 12 6 0
11 -10 2 0
4 -14 -5 0
1 -14 7 0
-19 12 18 0
-20 13 -10 0
10 20 -11 0
-8 -20 -19 0
-13 10 3 0
15 1 -8 0
7 -15 -2 0
15 5 19 0
-19 16 -3 0
-14 -2 -9 0
-6 -13 -18 0
-6 14 8 0
5 14 10 0
19 11 -5 0
8 -19 -14 0
-19 -14 -13 0
-4 -7 -5 0
%
0

13 13 49 56 78 93 3 52 31 48 13 62 86 43 47 70 49 26 98 26
